p cnf 876 2886
c input variables 15
c output variables 1
c literals 7702
-16 3 0
16 -3 6 0
-16 -6 0
-17 2 0
17 -2 3 5 6 0
-17 3 -6 0
-17 -5 0
17 -2 -3 5 -6 0
-17 -3 6 0
18 -17 0
-18 16 17 0
18 -16 0
-19 1 0
19 -1 3 4 6 0
-19 3 -6 0
-19 -4 0
19 -1 -3 4 -6 0
-19 -3 6 0
20 2 5 -19 0
-20 19 0
-20 2 -5 0
-20 -2 5 0
20 -2 -5 -19 0
21 -20 0
-21 18 20 0
21 -18 0
-22 21 0
22 -21 0
-23 0
-24 0
25 -24 0
-25 23 24 0
25 -23 0
-26 0
27 -26 0
-27 26 0
28 -27 0
-28 25 27 0
28 -25 0
-29 22 0
29 -22 -28 0
-29 28 0
30 -29 0
-30 22 29 0
30 -22 0
31 6 -9 0
-31 9 0
-31 -6 0
-32 8 0
32 5 6 -8 9 0
-32 6 -9 0
32 5 -6 -8 -9 0
-32 -6 9 0
-32 -5 0
33 -32 0
-33 31 32 0
33 -31 0
-34 7 0
34 4 6 -7 9 0
-34 6 -9 0
34 4 -6 -7 -9 0
-34 -6 9 0
-34 -4 0
35 5 8 -34 0
-35 34 0
-35 5 -8 0
-35 -5 8 0
35 -5 -8 -34 0
36 -35 0
-36 33 35 0
36 -33 0
37 6 -12 0
-37 12 0
-37 -6 0
-38 11 0
38 5 6 -11 12 0
-38 6 -12 0
38 5 -6 -11 -12 0
-38 -6 12 0
-38 -5 0
39 -38 0
-39 37 38 0
39 -37 0
-40 10 0
40 4 6 -10 12 0
-40 6 -12 0
40 4 -6 -10 -12 0
-40 -6 12 0
-40 -4 0
41 5 11 -40 0
-41 40 0
-41 5 -11 0
-41 -5 11 0
41 -5 -11 -40 0
42 -41 0
-42 39 41 0
42 -39 0
43 6 -15 0
-43 15 0
-43 -6 0
-44 14 0
44 5 6 -14 15 0
-44 6 -15 0
44 5 -6 -14 -15 0
-44 -6 15 0
-44 -5 0
45 -44 0
-45 43 44 0
45 -43 0
-46 13 0
46 4 6 -13 15 0
-46 6 -15 0
46 4 -6 -13 -15 0
-46 -6 15 0
-46 -4 0
47 5 14 -46 0
-47 46 0
-47 5 -14 0
-47 -5 14 0
47 -5 -14 -46 0
48 -47 0
-48 45 47 0
48 -45 0
49 30 0
-49 -30 0
-50 3 0
50 -3 9 0
-50 -9 0
-51 2 0
51 -2 3 8 9 0
-51 3 -9 0
-51 -8 0
51 -2 -3 8 -9 0
-51 -3 9 0
52 -51 0
-52 50 51 0
52 -50 0
-53 1 0
53 -1 3 7 9 0
-53 3 -9 0
-53 -7 0
53 -1 -3 7 -9 0
-53 -3 9 0
54 2 8 -53 0
-54 53 0
-54 2 -8 0
-54 -2 8 0
54 -2 -8 -53 0
55 -54 0
-55 52 54 0
55 -52 0
-56 49 0
56 -49 -55 0
-56 55 0
-57 30 0
57 -30 56 0
-57 -56 0
-58 56 0
58 -56 0
-59 57 0
59 -57 58 0
-59 -58 0
-60 6 0
60 -6 9 0
-60 -9 0
-61 5 0
61 -5 6 8 9 0
-61 6 -9 0
-61 -8 0
61 -5 -6 8 -9 0
-61 -6 9 0
62 -61 0
-62 60 61 0
62 -60 0
-63 4 0
63 -4 6 7 9 0
-63 6 -9 0
-63 -7 0
63 -4 -6 7 -9 0
-63 -6 9 0
64 5 8 -63 0
-64 63 0
-64 5 -8 0
-64 -5 8 0
64 -5 -8 -63 0
65 -64 0
-65 62 64 0
65 -62 0
-66 59 0
66 -59 -65 0
-66 65 0
-67 57 0
67 -57 66 0
-67 -66 0
68 -66 0
-68 58 66 0
68 -58 0
69 67 0
-69 -67 0
-70 68 0
70 -68 -69 0
-70 69 0
-71 0
-72 0
73 -72 0
-73 71 72 0
73 -71 0
-74 0
75 -74 0
-75 74 0
76 -75 0
-76 73 75 0
76 -73 0
-77 70 0
77 -70 -76 0
-77 76 0
-78 67 0
78 -67 77 0
-78 -77 0
79 -77 0
-79 68 77 0
79 -68 0
-80 78 0
80 -78 -79 0
-80 79 0
81 9 -12 0
-81 12 0
-81 -9 0
-82 11 0
82 8 9 -11 12 0
-82 9 -12 0
82 8 -9 -11 -12 0
-82 -9 12 0
-82 -8 0
83 -82 0
-83 81 82 0
83 -81 0
-84 10 0
84 7 9 -10 12 0
-84 9 -12 0
84 7 -9 -10 -12 0
-84 -9 12 0
-84 -7 0
85 8 11 -84 0
-85 84 0
-85 8 -11 0
-85 -8 11 0
85 -8 -11 -84 0
86 -85 0
-86 83 85 0
86 -83 0
-87 80 0
87 -80 -86 0
-87 86 0
-88 78 0
88 -78 87 0
-88 -87 0
89 -87 0
-89 79 87 0
89 -79 0
90 9 -15 0
-90 15 0
-90 -9 0
-91 14 0
91 8 9 -14 15 0
-91 9 -15 0
91 8 -9 -14 -15 0
-91 -9 15 0
-91 -8 0
92 -91 0
-92 90 91 0
92 -90 0
-93 13 0
93 7 9 -13 15 0
-93 9 -15 0
93 7 -9 -13 -15 0
-93 -9 15 0
-93 -7 0
94 8 14 -93 0
-94 93 0
-94 8 -14 0
-94 -8 14 0
94 -8 -14 -93 0
95 -94 0
-95 92 94 0
95 -92 0
96 88 0
-96 -88 0
97 89 -96 0
-97 96 0
-97 -89 0
-98 3 0
98 -3 12 0
-98 -12 0
-99 2 0
99 -2 3 11 12 0
-99 3 -12 0
-99 -11 0
99 -2 -3 11 -12 0
-99 -3 12 0
100 -99 0
-100 98 99 0
100 -98 0
-101 1 0
101 -1 3 10 12 0
-101 3 -12 0
-101 -10 0
101 -1 -3 10 -12 0
-101 -3 12 0
102 2 11 -101 0
-102 101 0
-102 2 -11 0
-102 -2 11 0
102 -2 -11 -101 0
103 -102 0
-103 100 102 0
103 -100 0
-104 97 0
104 -97 -103 0
-104 103 0
105 -104 0
-105 88 104 0
105 -88 0
106 -104 0
-106 89 104 0
106 -89 0
-107 105 0
107 -105 106 0
-107 -106 0
-108 6 0
108 -6 12 0
-108 -12 0
-109 5 0
109 -5 6 11 12 0
-109 6 -12 0
-109 -11 0
109 -5 -6 11 -12 0
-109 -6 12 0
110 -109 0
-110 108 109 0
110 -108 0
-111 4 0
111 -4 6 10 12 0
-111 6 -12 0
-111 -10 0
111 -4 -6 10 -12 0
-111 -6 12 0
112 5 11 -111 0
-112 111 0
-112 5 -11 0
-112 -5 11 0
112 -5 -11 -111 0
113 -112 0
-113 110 112 0
113 -110 0
-114 107 0
114 -107 -113 0
-114 113 0
115 -114 0
-115 105 114 0
115 -105 0
116 -114 0
-116 106 114 0
116 -106 0
117 115 0
-117 -115 0
-118 116 0
118 -116 -117 0
-118 117 0
-119 9 0
119 -9 12 0
-119 -12 0
-120 8 0
120 -8 9 11 12 0
-120 9 -12 0
-120 -11 0
120 -8 -9 11 -12 0
-120 -9 12 0
121 -120 0
-121 119 120 0
121 -119 0
-122 7 0
122 -7 9 10 12 0
-122 9 -12 0
-122 -10 0
122 -7 -9 10 -12 0
-122 -9 12 0
123 8 11 -122 0
-123 122 0
-123 8 -11 0
-123 -8 11 0
123 -8 -11 -122 0
124 -123 0
-124 121 123 0
124 -121 0
-125 118 0
125 -118 -124 0
-125 124 0
126 -125 0
-126 115 125 0
126 -115 0
127 -125 0
-127 116 125 0
127 -116 0
-128 126 0
128 -126 -127 0
-128 127 0
-129 0
-130 0
131 -130 0
-131 129 130 0
131 -129 0
-132 0
133 -132 0
-133 132 0
134 -133 0
-134 131 133 0
134 -131 0
-135 128 0
135 -128 -134 0
-135 134 0
136 -135 0
-136 126 135 0
136 -126 0
137 -135 0
-137 127 135 0
137 -127 0
138 12 -15 0
-138 15 0
-138 -12 0
-139 14 0
139 11 12 -14 15 0
-139 12 -15 0
139 11 -12 -14 -15 0
-139 -12 15 0
-139 -11 0
140 -139 0
-140 138 139 0
140 -138 0
-141 13 0
141 10 12 -13 15 0
-141 12 -15 0
141 10 -12 -13 -15 0
-141 -12 15 0
-141 -10 0
142 11 14 -141 0
-142 141 0
-142 11 -14 0
-142 -11 14 0
142 -11 -14 -141 0
143 -142 0
-143 140 142 0
143 -140 0
144 136 0
-144 -136 0
145 137 -144 0
-145 144 0
-145 -137 0
-146 3 0
146 -3 15 0
-146 -15 0
-147 2 0
147 -2 3 14 15 0
-147 3 -15 0
-147 -14 0
147 -2 -3 14 -15 0
-147 -3 15 0
148 -147 0
-148 146 147 0
148 -146 0
-149 1 0
149 -1 3 13 15 0
-149 3 -15 0
-149 -13 0
149 -1 -3 13 -15 0
-149 -3 15 0
150 2 14 -149 0
-150 149 0
-150 2 -14 0
-150 -2 14 0
150 -2 -14 -149 0
151 -150 0
-151 148 150 0
151 -148 0
-152 145 0
152 -145 -151 0
-152 151 0
-153 136 0
153 -136 152 0
-153 -152 0
-154 137 0
154 -137 152 0
-154 -152 0
-155 152 0
155 -152 0
-156 153 0
156 -153 154 0
-156 -154 0
157 155 -156 0
-157 156 0
-157 -155 0
-158 6 0
158 -6 15 0
-158 -15 0
-159 5 0
159 -5 6 14 15 0
-159 6 -15 0
-159 -14 0
159 -5 -6 14 -15 0
-159 -6 15 0
160 -159 0
-160 158 159 0
160 -158 0
-161 4 0
161 -4 6 13 15 0
-161 6 -15 0
-161 -13 0
161 -4 -6 13 -15 0
-161 -6 15 0
162 5 14 -161 0
-162 161 0
-162 5 -14 0
-162 -5 14 0
162 -5 -14 -161 0
163 -162 0
-163 160 162 0
163 -160 0
-164 157 0
164 -157 -163 0
-164 163 0
-165 153 0
165 -153 164 0
-165 -164 0
-166 154 0
166 -154 164 0
-166 -164 0
167 -164 0
-167 155 164 0
167 -155 0
168 165 0
-168 -165 0
-169 166 0
169 -166 -168 0
-169 168 0
170 167 -169 0
-170 169 0
-170 -167 0
-171 9 0
171 -9 15 0
-171 -15 0
-172 8 0
172 -8 9 14 15 0
-172 9 -15 0
-172 -14 0
172 -8 -9 14 -15 0
-172 -9 15 0
173 -172 0
-173 171 172 0
173 -171 0
-174 7 0
174 -7 9 13 15 0
-174 9 -15 0
-174 -13 0
174 -7 -9 13 -15 0
-174 -9 15 0
175 8 14 -174 0
-175 174 0
-175 8 -14 0
-175 -8 14 0
175 -8 -14 -174 0
176 -175 0
-176 173 175 0
176 -173 0
-177 170 0
177 -170 -176 0
-177 176 0
-178 165 0
178 -165 177 0
-178 -177 0
-179 166 0
179 -166 177 0
-179 -177 0
180 -177 0
-180 167 177 0
180 -167 0
-181 178 0
181 -178 -179 0
-181 179 0
182 180 -181 0
-182 181 0
-182 -180 0
-183 12 0
183 -12 15 0
-183 -15 0
-184 11 0
184 -11 12 14 15 0
-184 12 -15 0
-184 -14 0
184 -11 -12 14 -15 0
-184 -12 15 0
185 -184 0
-185 183 184 0
185 -183 0
-186 10 0
186 -10 12 13 15 0
-186 12 -15 0
-186 -13 0
186 -10 -12 13 -15 0
-186 -12 15 0
187 11 14 -186 0
-187 186 0
-187 11 -14 0
-187 -11 14 0
187 -11 -14 -186 0
188 -187 0
-188 185 187 0
188 -185 0
-189 182 0
189 -182 -188 0
-189 188 0
-190 178 0
190 -178 189 0
-190 -189 0
-191 179 0
191 -179 189 0
-191 -189 0
192 -189 0
-192 180 189 0
192 -180 0
193 190 0
-193 -190 0
194 191 -193 0
-194 193 0
-194 -191 0
-195 192 0
195 -192 -194 0
-195 194 0
-196 0
-197 0
198 -197 0
-198 196 197 0
198 -196 0
-199 0
200 -199 0
-200 199 0
201 -200 0
-201 198 200 0
201 -198 0
-202 195 0
202 -195 -201 0
-202 201 0
-203 190 0
203 -190 202 0
-203 -202 0
-204 191 0
204 -191 202 0
-204 -202 0
205 -202 0
-205 192 202 0
205 -192 0
206 203 0
-206 -203 0
207 204 -206 0
-207 206 0
-207 -204 0
208 205 -207 0
-208 207 0
-208 -205 0
209 -1 0
-209 1 0
210 -2 0
-210 2 0
211 -3 0
-211 3 0
-212 203 0
212 -203 204 0
-212 -204 0
213 205 -212 0
-213 212 0
-213 -205 0
214 -209 213 0
214 -4 -213 0
-214 209 213 0
-214 4 -213 0
215 -210 213 0
215 -5 -213 0
-215 210 213 0
-215 5 -213 0
216 -211 213 0
216 -6 -213 0
-216 211 213 0
-216 6 -213 0
217 -4 213 0
217 -209 -213 0
-217 4 213 0
-217 209 -213 0
218 -5 213 0
218 -210 -213 0
-218 5 213 0
-218 210 -213 0
219 -6 213 0
219 -211 -213 0
-219 6 213 0
-219 211 -213 0
-220 204 0
220 -204 -206 0
-220 206 0
221 205 -220 0
-221 220 0
-221 -205 0
222 -214 221 0
222 -7 -221 0
-222 214 221 0
-222 7 -221 0
223 -215 221 0
223 -8 -221 0
-223 215 221 0
-223 8 -221 0
224 -216 221 0
224 -9 -221 0
-224 216 221 0
-224 9 -221 0
225 -7 221 0
225 -214 -221 0
-225 7 221 0
-225 214 -221 0
226 -8 221 0
226 -215 -221 0
-226 8 221 0
-226 215 -221 0
227 -9 221 0
227 -216 -221 0
-227 9 221 0
-227 216 -221 0
-228 203 0
228 -203 -204 0
-228 204 0
229 205 -228 0
-229 228 0
-229 -205 0
230 -222 229 0
230 -10 -229 0
-230 222 229 0
-230 10 -229 0
231 -223 229 0
231 -11 -229 0
-231 223 229 0
-231 11 -229 0
232 -224 229 0
232 -12 -229 0
-232 224 229 0
-232 12 -229 0
233 -10 229 0
233 -222 -229 0
-233 10 229 0
-233 222 -229 0
234 -11 229 0
234 -223 -229 0
-234 11 229 0
-234 223 -229 0
235 -12 229 0
235 -224 -229 0
-235 12 229 0
-235 224 -229 0
-236 205 0
236 -205 -207 0
-236 207 0
237 -230 236 0
237 -13 -236 0
-237 230 236 0
-237 13 -236 0
238 -231 236 0
238 -14 -236 0
-238 231 236 0
-238 14 -236 0
239 -232 236 0
239 -15 -236 0
-239 232 236 0
-239 15 -236 0
240 -13 236 0
240 -230 -236 0
-240 13 236 0
-240 230 -236 0
241 -14 236 0
241 -231 -236 0
-241 14 236 0
-241 231 -236 0
242 -15 236 0
242 -232 -236 0
-242 15 236 0
-242 232 -236 0
-243 219 0
243 -219 227 0
-243 -227 0
-244 218 0
244 -218 219 226 227 0
-244 219 -227 0
-244 -226 0
244 -218 -219 226 -227 0
-244 -219 227 0
245 -244 0
-245 243 244 0
245 -243 0
-246 217 0
246 -217 219 225 227 0
-246 219 -227 0
-246 -225 0
246 -217 -219 225 -227 0
-246 -219 227 0
247 218 226 -246 0
-247 246 0
-247 218 -226 0
-247 -218 226 0
247 -218 -226 -246 0
248 -247 0
-248 245 247 0
248 -245 0
249 248 0
-249 -248 0
-250 248 0
250 -248 0
251 249 0
-251 -249 0
-252 250 0
252 -250 -251 0
-252 251 0
-253 0
-254 0
255 -254 0
-255 253 254 0
255 -253 0
-256 0
257 -256 0
-257 256 0
258 -257 0
-258 255 257 0
258 -255 0
-259 252 0
259 -252 -258 0
-259 258 0
-260 249 0
260 -249 259 0
-260 -259 0
261 -259 0
-261 250 259 0
261 -250 0
-262 260 0
262 -260 -261 0
-262 261 0
263 227 -235 0
-263 235 0
-263 -227 0
-264 234 0
264 226 227 -234 235 0
-264 227 -235 0
264 226 -227 -234 -235 0
-264 -227 235 0
-264 -226 0
265 -264 0
-265 263 264 0
265 -263 0
-266 233 0
266 225 227 -233 235 0
-266 227 -235 0
266 225 -227 -233 -235 0
-266 -227 235 0
-266 -225 0
267 226 234 -266 0
-267 266 0
-267 226 -234 0
-267 -226 234 0
267 -226 -234 -266 0
268 -267 0
-268 265 267 0
268 -265 0
-269 262 0
269 -262 -268 0
-269 268 0
-270 260 0
270 -260 269 0
-270 -269 0
271 -269 0
-271 261 269 0
271 -261 0
-272 270 0
272 -270 271 0
-272 -271 0
-273 219 0
273 -219 235 0
-273 -235 0
-274 218 0
274 -218 219 234 235 0
-274 219 -235 0
-274 -234 0
274 -218 -219 234 -235 0
-274 -219 235 0
275 -274 0
-275 273 274 0
275 -273 0
-276 217 0
276 -217 219 233 235 0
-276 219 -235 0
-276 -233 0
276 -217 -219 233 -235 0
-276 -219 235 0
277 218 234 -276 0
-277 276 0
-277 218 -234 0
-277 -218 234 0
277 -218 -234 -276 0
278 -277 0
-278 275 277 0
278 -275 0
-279 272 0
279 -272 -278 0
-279 278 0
280 -279 0
-280 270 279 0
280 -270 0
281 -279 0
-281 271 279 0
281 -271 0
282 280 0
-282 -280 0
-283 281 0
283 -281 -282 0
-283 282 0
-284 227 0
284 -227 235 0
-284 -235 0
-285 226 0
285 -226 227 234 235 0
-285 227 -235 0
-285 -234 0
285 -226 -227 234 -235 0
-285 -227 235 0
286 -285 0
-286 284 285 0
286 -284 0
-287 225 0
287 -225 227 233 235 0
-287 227 -235 0
-287 -233 0
287 -225 -227 233 -235 0
-287 -227 235 0
288 226 234 -287 0
-288 287 0
-288 226 -234 0
-288 -226 234 0
288 -226 -234 -287 0
289 -288 0
-289 286 288 0
289 -286 0
-290 283 0
290 -283 -289 0
-290 289 0
291 -290 0
-291 280 290 0
291 -280 0
292 -290 0
-292 281 290 0
292 -281 0
-293 291 0
293 -291 -292 0
-293 292 0
-294 0
-295 0
296 -295 0
-296 294 295 0
296 -294 0
-297 0
298 -297 0
-298 297 0
299 -298 0
-299 296 298 0
299 -296 0
-300 293 0
300 -293 -299 0
-300 299 0
301 -300 0
-301 291 300 0
301 -291 0
302 -300 0
-302 292 300 0
302 -292 0
-303 301 0
303 -301 302 0
-303 -302 0
-304 219 0
304 -219 242 0
-304 -242 0
-305 218 0
305 -218 219 241 242 0
-305 219 -242 0
-305 -241 0
305 -218 -219 241 -242 0
-305 -219 242 0
306 -305 0
-306 304 305 0
306 -304 0
-307 217 0
307 -217 219 240 242 0
-307 219 -242 0
-307 -240 0
307 -217 -219 240 -242 0
-307 -219 242 0
308 218 241 -307 0
-308 307 0
-308 218 -241 0
-308 -218 241 0
308 -218 -241 -307 0
309 -308 0
-309 306 308 0
309 -306 0
-310 303 0
310 -303 -309 0
-310 309 0
-311 301 0
311 -301 310 0
-311 -310 0
-312 302 0
312 -302 310 0
-312 -310 0
-313 310 0
313 -310 0
314 311 0
-314 -311 0
-315 312 0
315 -312 -314 0
-315 314 0
316 313 -315 0
-316 315 0
-316 -313 0
-317 227 0
317 -227 242 0
-317 -242 0
-318 226 0
318 -226 227 241 242 0
-318 227 -242 0
-318 -241 0
318 -226 -227 241 -242 0
-318 -227 242 0
319 -318 0
-319 317 318 0
319 -317 0
-320 225 0
320 -225 227 240 242 0
-320 227 -242 0
-320 -240 0
320 -225 -227 240 -242 0
-320 -227 242 0
321 226 241 -320 0
-321 320 0
-321 226 -241 0
-321 -226 241 0
321 -226 -241 -320 0
322 -321 0
-322 319 321 0
322 -319 0
-323 316 0
323 -316 -322 0
-323 322 0
-324 311 0
324 -311 323 0
-324 -323 0
-325 312 0
325 -312 323 0
-325 -323 0
326 -323 0
-326 313 323 0
326 -313 0
-327 324 0
327 -324 -325 0
-327 325 0
328 326 -327 0
-328 327 0
-328 -326 0
-329 235 0
329 -235 242 0
-329 -242 0
-330 234 0
330 -234 235 241 242 0
-330 235 -242 0
-330 -241 0
330 -234 -235 241 -242 0
-330 -235 242 0
331 -330 0
-331 329 330 0
331 -329 0
-332 233 0
332 -233 235 240 242 0
-332 235 -242 0
-332 -240 0
332 -233 -235 240 -242 0
-332 -235 242 0
333 234 241 -332 0
-333 332 0
-333 234 -241 0
-333 -234 241 0
333 -234 -241 -332 0
334 -333 0
-334 331 333 0
334 -331 0
-335 328 0
335 -328 -334 0
-335 334 0
-336 324 0
336 -324 335 0
-336 -335 0
-337 325 0
337 -325 335 0
-337 -335 0
338 -335 0
-338 326 335 0
338 -326 0
339 336 0
-339 -336 0
340 337 -339 0
-340 339 0
-340 -337 0
-341 338 0
341 -338 -340 0
-341 340 0
-342 0
-343 0
344 -343 0
-344 342 343 0
344 -342 0
-345 0
346 -345 0
-346 345 0
347 -346 0
-347 344 346 0
347 -344 0
-348 341 0
348 -341 -347 0
-348 347 0
-349 336 0
349 -336 348 0
-349 -348 0
-350 337 0
350 -337 348 0
-350 -348 0
351 -348 0
-351 338 348 0
351 -338 0
-352 349 0
352 -349 350 0
-352 -350 0
353 351 -352 0
-353 352 0
-353 -351 0
354 -217 0
-354 217 0
355 -218 0
-355 218 0
356 -219 0
-356 219 0
357 349 0
-357 -349 0
-358 350 0
358 -350 -357 0
-358 357 0
359 351 -358 0
-359 358 0
-359 -351 0
360 -354 359 0
360 -225 -359 0
-360 354 359 0
-360 225 -359 0
361 -355 359 0
361 -226 -359 0
-361 355 359 0
-361 226 -359 0
362 -356 359 0
362 -227 -359 0
-362 356 359 0
-362 227 -359 0
363 -225 359 0
363 -354 -359 0
-363 225 359 0
-363 354 -359 0
364 -226 359 0
364 -355 -359 0
-364 226 359 0
-364 355 -359 0
365 -227 359 0
365 -356 -359 0
-365 227 359 0
-365 356 -359 0
-366 349 0
366 -349 -350 0
-366 350 0
367 351 -366 0
-367 366 0
-367 -351 0
368 -360 367 0
368 -233 -367 0
-368 360 367 0
-368 233 -367 0
369 -361 367 0
369 -234 -367 0
-369 361 367 0
-369 234 -367 0
370 -362 367 0
370 -235 -367 0
-370 362 367 0
-370 235 -367 0
371 -233 367 0
371 -360 -367 0
-371 233 367 0
-371 360 -367 0
372 -234 367 0
372 -361 -367 0
-372 234 367 0
-372 361 -367 0
373 -235 367 0
373 -362 -367 0
-373 235 367 0
-373 362 -367 0
374 350 -357 0
-374 357 0
-374 -350 0
-375 351 0
375 -351 -374 0
-375 374 0
376 -368 375 0
376 -240 -375 0
-376 368 375 0
-376 240 -375 0
377 -369 375 0
377 -241 -375 0
-377 369 375 0
-377 241 -375 0
378 -370 375 0
378 -242 -375 0
-378 370 375 0
-378 242 -375 0
379 -240 375 0
379 -368 -375 0
-379 240 375 0
-379 368 -375 0
380 -241 375 0
380 -369 -375 0
-380 241 375 0
-380 369 -375 0
381 -242 375 0
381 -370 -375 0
-381 242 375 0
-381 370 -375 0
-382 365 0
382 -365 373 0
-382 -373 0
-383 364 0
383 -364 365 372 373 0
-383 365 -373 0
-383 -372 0
383 -364 -365 372 -373 0
-383 -365 373 0
384 -383 0
-384 382 383 0
384 -382 0
-385 363 0
385 -363 365 371 373 0
-385 365 -373 0
-385 -371 0
385 -363 -365 371 -373 0
-385 -365 373 0
386 364 372 -385 0
-386 385 0
-386 364 -372 0
-386 -364 372 0
386 -364 -372 -385 0
387 -386 0
-387 384 386 0
387 -384 0
-388 387 0
388 -387 0
389 0
-390 388 0
390 -388 -389 0
-390 389 0
-391 0
-392 0
393 -392 0
-393 391 392 0
393 -391 0
-394 0
395 -394 0
-395 394 0
396 -395 0
-396 393 395 0
396 -393 0
-397 390 0
397 -390 -396 0
-397 396 0
398 -397 0
-398 388 397 0
398 -388 0
399 -397 0
-399 389 397 0
399 -389 0
400 398 0
-400 -398 0
-401 399 0
401 -399 -400 0
-401 400 0
-402 365 0
402 -365 381 0
-402 -381 0
-403 364 0
403 -364 365 380 381 0
-403 365 -381 0
-403 -380 0
403 -364 -365 380 -381 0
-403 -365 381 0
404 -403 0
-404 402 403 0
404 -402 0
-405 363 0
405 -363 365 379 381 0
-405 365 -381 0
-405 -379 0
405 -363 -365 379 -381 0
-405 -365 381 0
406 364 380 -405 0
-406 405 0
-406 364 -380 0
-406 -364 380 0
406 -364 -380 -405 0
407 -406 0
-407 404 406 0
407 -404 0
-408 401 0
408 -401 -407 0
-408 407 0
-409 398 0
409 -398 408 0
-409 -408 0
-410 399 0
410 -399 408 0
-410 -408 0
-411 408 0
411 -408 0
-412 409 0
412 -409 -410 0
-412 410 0
413 411 -412 0
-413 412 0
-413 -411 0
-414 373 0
414 -373 381 0
-414 -381 0
-415 372 0
415 -372 373 380 381 0
-415 373 -381 0
-415 -380 0
415 -372 -373 380 -381 0
-415 -373 381 0
416 -415 0
-416 414 415 0
416 -414 0
-417 371 0
417 -371 373 379 381 0
-417 373 -381 0
-417 -379 0
417 -371 -373 379 -381 0
-417 -373 381 0
418 372 380 -417 0
-418 417 0
-418 372 -380 0
-418 -372 380 0
418 -372 -380 -417 0
419 -418 0
-419 416 418 0
419 -416 0
-420 413 0
420 -413 -419 0
-420 419 0
-421 409 0
421 -409 420 0
-421 -420 0
-422 410 0
422 -410 420 0
-422 -420 0
423 -420 0
-423 411 420 0
423 -411 0
424 421 0
-424 -421 0
425 422 -424 0
-425 424 0
-425 -422 0
-426 423 0
426 -423 -425 0
-426 425 0
-427 0
-428 0
429 -428 0
-429 427 428 0
429 -427 0
-430 0
431 -430 0
-431 430 0
432 -431 0
-432 429 431 0
432 -429 0
-433 426 0
433 -426 -432 0
-433 432 0
-434 421 0
434 -421 433 0
-434 -433 0
-435 422 0
435 -422 433 0
-435 -433 0
436 -433 0
-436 423 433 0
436 -423 0
437 434 0
-437 -434 0
-438 435 0
438 -435 -437 0
-438 437 0
439 436 -438 0
-439 438 0
-439 -436 0
440 -363 0
-440 363 0
441 -364 0
-441 364 0
442 -365 0
-442 365 0
-443 434 0
443 -434 -435 0
-443 435 0
444 436 -443 0
-444 443 0
-444 -436 0
445 -440 444 0
445 -371 -444 0
-445 440 444 0
-445 371 -444 0
446 -441 444 0
446 -372 -444 0
-446 441 444 0
-446 372 -444 0
447 -442 444 0
447 -373 -444 0
-447 442 444 0
-447 373 -444 0
448 -371 444 0
448 -440 -444 0
-448 371 444 0
-448 440 -444 0
449 -372 444 0
449 -441 -444 0
-449 372 444 0
-449 441 -444 0
450 -373 444 0
450 -442 -444 0
-450 373 444 0
-450 442 -444 0
451 435 -437 0
-451 437 0
-451 -435 0
-452 436 0
452 -436 -451 0
-452 451 0
453 -445 452 0
453 -379 -452 0
-453 445 452 0
-453 379 -452 0
454 -446 452 0
454 -380 -452 0
-454 446 452 0
-454 380 -452 0
455 -447 452 0
455 -381 -452 0
-455 447 452 0
-455 381 -452 0
456 -379 452 0
456 -445 -452 0
-456 379 452 0
-456 445 -452 0
457 -380 452 0
457 -446 -452 0
-457 380 452 0
-457 446 -452 0
458 -381 452 0
458 -447 -452 0
-458 381 452 0
-458 447 -452 0
-459 450 0
459 -450 458 0
-459 -458 0
-460 449 0
460 -449 450 457 458 0
-460 450 -458 0
-460 -457 0
460 -449 -450 457 -458 0
-460 -450 458 0
461 -460 0
-461 459 460 0
461 -459 0
-462 448 0
462 -448 450 456 458 0
-462 450 -458 0
-462 -456 0
462 -448 -450 456 -458 0
-462 -450 458 0
463 449 457 -462 0
-463 462 0
-463 449 -457 0
-463 -449 457 0
463 -449 -457 -462 0
464 -463 0
-464 461 463 0
464 -461 0
465 464 0
-465 -464 0
-466 464 0
466 -464 0
467 465 0
-467 -465 0
468 465 -467 0
-468 467 0
-468 -465 0
-469 466 0
469 -466 -468 0
-469 468 0
-470 0
-471 0
472 -471 0
-472 470 471 0
472 -470 0
-473 0
474 -473 0
-474 473 0
475 -474 0
-475 472 474 0
475 -472 0
-476 469 0
476 -469 -475 0
-476 475 0
-477 465 0
477 -465 476 0
-477 -476 0
478 -476 0
-478 466 476 0
478 -466 0
479 -477 0
-479 477 0
480 478 -479 0
-480 479 0
-480 -478 0
481 -448 0
-481 448 0
482 -449 0
-482 449 0
483 -450 0
-483 450 0
484 477 0
-484 -477 0
485 477 -484 0
-485 484 0
-485 -477 0
-486 478 0
486 -478 -485 0
-486 485 0
487 -481 486 0
487 -456 -486 0
-487 481 486 0
-487 456 -486 0
488 -482 486 0
488 -457 -486 0
-488 482 486 0
-488 457 -486 0
489 -483 486 0
489 -458 -486 0
-489 483 486 0
-489 458 -486 0
490 -456 486 0
490 -481 -486 0
-490 456 486 0
-490 481 -486 0
491 -457 486 0
491 -482 -486 0
-491 457 486 0
-491 482 -486 0
492 -458 486 0
492 -483 -486 0
-492 458 486 0
-492 483 -486 0
493 3 -6 0
-493 6 0
-493 -3 0
-494 5 0
494 2 3 -5 6 0
-494 3 -6 0
494 2 -3 -5 -6 0
-494 -3 6 0
-494 -2 0
495 -494 0
-495 493 494 0
495 -493 0
-496 4 0
496 1 3 -4 6 0
-496 3 -6 0
496 1 -3 -4 -6 0
-496 -3 6 0
-496 -1 0
497 2 5 -496 0
-497 496 0
-497 2 -5 0
-497 -2 5 0
497 -2 -5 -496 0
498 -497 0
-498 495 497 0
498 -495 0
-499 498 0
499 -498 0
-500 28 0
500 -28 -499 0
-500 499 0
501 -500 0
-501 499 500 0
501 -499 0
502 501 0
-502 -501 0
503 3 -9 0
-503 9 0
-503 -3 0
-504 8 0
504 2 3 -8 9 0
-504 3 -9 0
504 2 -3 -8 -9 0
-504 -3 9 0
-504 -2 0
505 -504 0
-505 503 504 0
505 -503 0
-506 7 0
506 1 3 -7 9 0
-506 3 -9 0
506 1 -3 -7 -9 0
-506 -3 9 0
-506 -1 0
507 2 8 -506 0
-507 506 0
-507 2 -8 0
-507 -2 8 0
507 -2 -8 -506 0
508 -507 0
-508 505 507 0
508 -505 0
-509 502 0
509 -502 -508 0
-509 508 0
-510 501 0
510 -501 509 0
-510 -509 0
-511 509 0
511 -509 0
-512 510 0
512 -510 511 0
-512 -511 0
-513 36 0
513 -36 -512 0
-513 512 0
-514 510 0
514 -510 513 0
-514 -513 0
515 -513 0
-515 511 513 0
515 -511 0
516 514 0
-516 -514 0
-517 515 0
517 -515 -516 0
-517 516 0
-518 76 0
518 -76 -517 0
-518 517 0
-519 514 0
519 -514 518 0
-519 -518 0
520 -518 0
-520 515 518 0
520 -515 0
-521 519 0
521 -519 -520 0
-521 520 0
-522 124 0
522 -124 -521 0
-522 521 0
-523 519 0
523 -519 522 0
-523 -522 0
524 -522 0
-524 520 522 0
524 -520 0
525 523 0
-525 -523 0
526 524 -525 0
-526 525 0
-526 -524 0
527 3 -12 0
-527 12 0
-527 -3 0
-528 11 0
528 2 3 -11 12 0
-528 3 -12 0
528 2 -3 -11 -12 0
-528 -3 12 0
-528 -2 0
529 -528 0
-529 527 528 0
529 -527 0
-530 10 0
530 1 3 -10 12 0
-530 3 -12 0
530 1 -3 -10 -12 0
-530 -3 12 0
-530 -1 0
531 2 11 -530 0
-531 530 0
-531 2 -11 0
-531 -2 11 0
531 -2 -11 -530 0
532 -531 0
-532 529 531 0
532 -529 0
-533 526 0
533 -526 -532 0
-533 532 0
534 -533 0
-534 523 533 0
534 -523 0
535 -533 0
-535 524 533 0
535 -524 0
-536 534 0
536 -534 535 0
-536 -535 0
-537 42 0
537 -42 -536 0
-537 536 0
538 -537 0
-538 534 537 0
538 -534 0
539 -537 0
-539 535 537 0
539 -535 0
540 538 0
-540 -538 0
-541 539 0
541 -539 -540 0
-541 540 0
-542 86 0
542 -86 -541 0
-542 541 0
543 -542 0
-543 538 542 0
543 -538 0
544 -542 0
-544 539 542 0
544 -539 0
-545 543 0
545 -543 -544 0
-545 544 0
-546 134 0
546 -134 -545 0
-546 545 0
547 -546 0
-547 543 546 0
547 -543 0
548 -546 0
-548 544 546 0
548 -544 0
549 547 0
-549 -547 0
550 548 -549 0
-550 549 0
-550 -548 0
551 3 -15 0
-551 15 0
-551 -3 0
-552 14 0
552 2 3 -14 15 0
-552 3 -15 0
552 2 -3 -14 -15 0
-552 -3 15 0
-552 -2 0
553 -552 0
-553 551 552 0
553 -551 0
-554 13 0
554 1 3 -13 15 0
-554 3 -15 0
554 1 -3 -13 -15 0
-554 -3 15 0
-554 -1 0
555 2 14 -554 0
-555 554 0
-555 2 -14 0
-555 -2 14 0
555 -2 -14 -554 0
556 -555 0
-556 553 555 0
556 -553 0
-557 550 0
557 -550 -556 0
-557 556 0
-558 547 0
558 -547 557 0
-558 -557 0
-559 548 0
559 -548 557 0
-559 -557 0
-560 557 0
560 -557 0
-561 558 0
561 -558 559 0
-561 -559 0
562 560 -561 0
-562 561 0
-562 -560 0
-563 48 0
563 -48 -562 0
-563 562 0
-564 558 0
564 -558 563 0
-564 -563 0
-565 559 0
565 -559 563 0
-565 -563 0
566 -563 0
-566 560 563 0
566 -560 0
567 564 0
-567 -564 0
-568 565 0
568 -565 -567 0
-568 567 0
569 566 -568 0
-569 568 0
-569 -566 0
-570 95 0
570 -95 -569 0
-570 569 0
-571 564 0
571 -564 570 0
-571 -570 0
-572 565 0
572 -565 570 0
-572 -570 0
573 -570 0
-573 566 570 0
573 -566 0
-574 571 0
574 -571 -572 0
-574 572 0
575 573 -574 0
-575 574 0
-575 -573 0
-576 143 0
576 -143 -575 0
-576 575 0
-577 571 0
577 -571 576 0
-577 -576 0
-578 572 0
578 -572 576 0
-578 -576 0
579 -576 0
-579 573 576 0
579 -573 0
580 577 0
-580 -577 0
581 578 -580 0
-581 580 0
-581 -578 0
-582 579 0
582 -579 -581 0
-582 581 0
-583 201 0
583 -201 -582 0
-583 582 0
-584 577 0
584 -577 583 0
-584 -583 0
-585 578 0
585 -578 583 0
-585 -583 0
586 -583 0
-586 579 583 0
586 -579 0
-587 584 0
587 -584 585 0
-587 -585 0
588 586 -587 0
-588 587 0
-588 -586 0
589 -1 588 0
589 -4 -588 0
-589 1 588 0
-589 4 -588 0
590 -2 588 0
590 -5 -588 0
-590 2 588 0
-590 5 -588 0
591 -3 588 0
591 -6 -588 0
-591 3 588 0
-591 6 -588 0
592 -4 588 0
592 -1 -588 0
-592 4 588 0
-592 1 -588 0
593 -5 588 0
593 -2 -588 0
-593 5 588 0
-593 2 -588 0
594 -6 588 0
594 -3 -588 0
-594 6 588 0
-594 3 -588 0
595 584 0
-595 -584 0
-596 585 0
596 -585 -595 0
-596 595 0
597 586 -596 0
-597 596 0
-597 -586 0
598 -589 597 0
598 -7 -597 0
-598 589 597 0
-598 7 -597 0
599 -590 597 0
599 -8 -597 0
-599 590 597 0
-599 8 -597 0
600 -591 597 0
600 -9 -597 0
-600 591 597 0
-600 9 -597 0
601 -7 597 0
601 -589 -597 0
-601 7 597 0
-601 589 -597 0
602 -8 597 0
602 -590 -597 0
-602 8 597 0
-602 590 -597 0
603 -9 597 0
603 -591 -597 0
-603 9 597 0
-603 591 -597 0
604 -592 0
-604 592 0
605 -593 0
-605 593 0
606 -594 0
-606 594 0
-607 584 0
607 -584 -585 0
-607 585 0
608 586 -607 0
-608 607 0
-608 -586 0
609 -598 608 0
609 -10 -608 0
-609 598 608 0
-609 10 -608 0
610 -599 608 0
610 -11 -608 0
-610 599 608 0
-610 11 -608 0
611 -600 608 0
611 -12 -608 0
-611 600 608 0
-611 12 -608 0
612 -10 608 0
612 -598 -608 0
-612 10 608 0
-612 598 -608 0
613 -11 608 0
613 -599 -608 0
-613 11 608 0
-613 599 -608 0
614 -12 608 0
614 -600 -608 0
-614 12 608 0
-614 600 -608 0
615 -604 608 0
615 -601 -608 0
-615 604 608 0
-615 601 -608 0
616 -605 608 0
616 -602 -608 0
-616 605 608 0
-616 602 -608 0
617 -606 608 0
617 -603 -608 0
-617 606 608 0
-617 603 -608 0
618 -601 608 0
618 -604 -608 0
-618 601 608 0
-618 604 -608 0
619 -602 608 0
619 -605 -608 0
-619 602 608 0
-619 605 -608 0
620 -603 608 0
620 -606 -608 0
-620 603 608 0
-620 606 -608 0
621 585 -595 0
-621 595 0
-621 -585 0
-622 586 0
622 -586 -621 0
-622 621 0
623 622 0
-623 -622 0
624 -609 623 0
624 -13 -623 0
-624 609 623 0
-624 13 -623 0
625 -610 623 0
625 -14 -623 0
-625 610 623 0
-625 14 -623 0
626 -611 623 0
626 -15 -623 0
-626 611 623 0
-626 15 -623 0
627 -13 623 0
627 -609 -623 0
-627 13 623 0
-627 609 -623 0
628 -14 623 0
628 -610 -623 0
-628 14 623 0
-628 610 -623 0
629 -15 623 0
629 -611 -623 0
-629 15 623 0
-629 611 -623 0
630 -615 623 0
630 -612 -623 0
-630 615 623 0
-630 612 -623 0
631 -616 623 0
631 -613 -623 0
-631 616 623 0
-631 613 -623 0
632 -617 623 0
632 -614 -623 0
-632 617 623 0
-632 614 -623 0
633 -612 623 0
633 -615 -623 0
-633 612 623 0
-633 615 -623 0
634 -613 623 0
634 -616 -623 0
-634 613 623 0
-634 616 -623 0
635 -614 623 0
635 -617 -623 0
-635 614 623 0
-635 617 -623 0
636 -618 0
-636 618 0
637 -619 0
-637 619 0
638 -620 0
-638 620 0
639 626 -632 0
-639 632 0
-639 -626 0
-640 631 0
640 625 626 -631 632 0
-640 626 -632 0
640 625 -626 -631 -632 0
-640 -626 632 0
-640 -625 0
641 -640 0
-641 639 640 0
641 -639 0
-642 630 0
642 624 626 -630 632 0
-642 626 -632 0
642 624 -626 -630 -632 0
-642 -626 632 0
-642 -624 0
643 625 631 -642 0
-643 642 0
-643 625 -631 0
-643 -625 631 0
643 -625 -631 -642 0
644 -643 0
-644 641 643 0
644 -641 0
-645 644 0
645 -644 0
-646 0
-647 0
648 -647 0
-648 646 647 0
648 -646 0
-649 0
650 -649 0
-650 649 0
651 -650 0
-651 648 650 0
651 -648 0
-652 645 0
652 -645 -651 0
-652 651 0
653 -652 0
-653 645 652 0
653 -645 0
654 653 0
-654 -653 0
655 626 -638 0
-655 638 0
-655 -626 0
-656 637 0
656 625 626 -637 638 0
-656 626 -638 0
656 625 -626 -637 -638 0
-656 -626 638 0
-656 -625 0
657 -656 0
-657 655 656 0
657 -655 0
-658 636 0
658 624 626 -636 638 0
-658 626 -638 0
658 624 -626 -636 -638 0
-658 -626 638 0
-658 -624 0
659 625 637 -658 0
-659 658 0
-659 625 -637 0
-659 -625 637 0
659 -625 -637 -658 0
660 -659 0
-660 657 659 0
660 -657 0
-661 654 0
661 -654 -660 0
-661 660 0
-662 653 0
662 -653 661 0
-662 -661 0
-663 661 0
663 -661 0
-664 662 0
664 -662 663 0
-664 -663 0
665 632 -638 0
-665 638 0
-665 -632 0
-666 637 0
666 631 632 -637 638 0
-666 632 -638 0
666 631 -632 -637 -638 0
-666 -632 638 0
-666 -631 0
667 -666 0
-667 665 666 0
667 -665 0
-668 636 0
668 630 632 -636 638 0
-668 632 -638 0
668 630 -632 -636 -638 0
-668 -632 638 0
-668 -630 0
669 631 637 -668 0
-669 668 0
-669 631 -637 0
-669 -631 637 0
669 -631 -637 -668 0
670 -669 0
-670 667 669 0
670 -667 0
-671 664 0
671 -664 -670 0
-671 670 0
-672 662 0
672 -662 671 0
-672 -671 0
673 -671 0
-673 663 671 0
673 -663 0
674 672 0
-674 -672 0
-675 673 0
675 -673 -674 0
-675 674 0
-676 0
-677 0
678 -677 0
-678 676 677 0
678 -676 0
-679 0
680 -679 0
-680 679 0
681 -680 0
-681 678 680 0
681 -678 0
-682 675 0
682 -675 -681 0
-682 681 0
-683 672 0
683 -672 682 0
-683 -682 0
684 -682 0
-684 673 682 0
684 -673 0
-685 683 0
685 -683 -684 0
-685 684 0
686 635 -638 0
-686 638 0
-686 -635 0
-687 637 0
687 634 635 -637 638 0
-687 635 -638 0
687 634 -635 -637 -638 0
-687 -635 638 0
-687 -634 0
688 -687 0
-688 686 687 0
688 -686 0
-689 636 0
689 633 635 -636 638 0
-689 635 -638 0
689 633 -635 -636 -638 0
-689 -635 638 0
-689 -633 0
690 634 637 -689 0
-690 689 0
-690 634 -637 0
-690 -634 637 0
690 -634 -637 -689 0
691 -690 0
-691 688 690 0
691 -688 0
-692 685 0
692 -685 -691 0
-692 691 0
-693 683 0
693 -683 692 0
-693 -692 0
694 -692 0
-694 684 692 0
694 -684 0
695 693 0
-695 -693 0
696 694 -695 0
-696 695 0
-696 -694 0
697 626 -635 0
-697 635 0
-697 -626 0
-698 634 0
698 625 626 -634 635 0
-698 626 -635 0
698 625 -626 -634 -635 0
-698 -626 635 0
-698 -625 0
699 -698 0
-699 697 698 0
699 -697 0
-700 633 0
700 624 626 -633 635 0
-700 626 -635 0
700 624 -626 -633 -635 0
-700 -626 635 0
-700 -624 0
701 625 634 -700 0
-701 700 0
-701 625 -634 0
-701 -625 634 0
701 -625 -634 -700 0
702 -701 0
-702 699 701 0
702 -699 0
-703 696 0
703 -696 -702 0
-703 702 0
704 -703 0
-704 693 703 0
704 -693 0
705 -703 0
-705 694 703 0
705 -694 0
-706 704 0
706 -704 705 0
-706 -705 0
707 632 -635 0
-707 635 0
-707 -632 0
-708 634 0
708 631 632 -634 635 0
-708 632 -635 0
708 631 -632 -634 -635 0
-708 -632 635 0
-708 -631 0
709 -708 0
-709 707 708 0
709 -707 0
-710 633 0
710 630 632 -633 635 0
-710 632 -635 0
710 630 -632 -633 -635 0
-710 -632 635 0
-710 -630 0
711 631 634 -710 0
-711 710 0
-711 631 -634 0
-711 -631 634 0
711 -631 -634 -710 0
712 -711 0
-712 709 711 0
712 -709 0
-713 706 0
713 -706 -712 0
-713 712 0
714 -713 0
-714 704 713 0
714 -704 0
715 -713 0
-715 705 713 0
715 -705 0
716 714 0
-716 -714 0
-717 715 0
717 -715 -716 0
-717 716 0
-718 635 0
718 -635 638 0
-718 -638 0
-719 634 0
719 -634 635 637 638 0
-719 635 -638 0
-719 -637 0
719 -634 -635 637 -638 0
-719 -635 638 0
720 -719 0
-720 718 719 0
720 -718 0
-721 633 0
721 -633 635 636 638 0
-721 635 -638 0
-721 -636 0
721 -633 -635 636 -638 0
-721 -635 638 0
722 634 637 -721 0
-722 721 0
-722 634 -637 0
-722 -634 637 0
722 -634 -637 -721 0
723 -722 0
-723 720 722 0
723 -720 0
-724 717 0
724 -717 -723 0
-724 723 0
725 -724 0
-725 714 724 0
725 -714 0
726 -724 0
-726 715 724 0
726 -715 0
-727 725 0
727 -725 -726 0
-727 726 0
-728 0
-729 0
730 -729 0
-730 728 729 0
730 -728 0
-731 0
732 -731 0
-732 731 0
733 -732 0
-733 730 732 0
733 -730 0
-734 727 0
734 -727 -733 0
-734 733 0
735 -734 0
-735 725 734 0
735 -725 0
736 -734 0
-736 726 734 0
736 -726 0
-737 735 0
737 -735 736 0
-737 -736 0
738 -624 737 0
738 -630 -737 0
-738 624 737 0
-738 630 -737 0
739 -625 737 0
739 -631 -737 0
-739 625 737 0
-739 631 -737 0
740 -626 737 0
740 -632 -737 0
-740 626 737 0
-740 632 -737 0
741 -630 737 0
741 -624 -737 0
-741 630 737 0
-741 624 -737 0
742 -631 737 0
742 -625 -737 0
-742 631 737 0
-742 625 -737 0
743 -632 737 0
743 -626 -737 0
-743 632 737 0
-743 626 -737 0
744 735 0
-744 -735 0
-745 736 0
745 -736 -744 0
-745 744 0
746 -738 745 0
746 -636 -745 0
-746 738 745 0
-746 636 -745 0
747 -739 745 0
747 -637 -745 0
-747 739 745 0
-747 637 -745 0
748 -740 745 0
748 -638 -745 0
-748 740 745 0
-748 638 -745 0
749 -636 745 0
749 -738 -745 0
-749 636 745 0
-749 738 -745 0
750 -637 745 0
750 -739 -745 0
-750 637 745 0
-750 739 -745 0
751 -638 745 0
751 -740 -745 0
-751 638 745 0
-751 740 -745 0
752 -741 0
-752 741 0
753 -742 0
-753 742 0
754 -743 0
-754 743 0
-755 735 0
755 -735 -736 0
-755 736 0
756 755 0
-756 -755 0
757 -746 756 0
757 -633 -756 0
-757 746 756 0
-757 633 -756 0
758 -747 756 0
758 -634 -756 0
-758 747 756 0
-758 634 -756 0
759 -748 756 0
759 -635 -756 0
-759 748 756 0
-759 635 -756 0
760 -633 756 0
760 -746 -756 0
-760 633 756 0
-760 746 -756 0
761 -634 756 0
761 -747 -756 0
-761 634 756 0
-761 747 -756 0
762 -635 756 0
762 -748 -756 0
-762 635 756 0
-762 748 -756 0
763 -752 756 0
763 -749 -756 0
-763 752 756 0
-763 749 -756 0
764 -753 756 0
764 -750 -756 0
-764 753 756 0
-764 750 -756 0
765 -754 756 0
765 -751 -756 0
-765 754 756 0
-765 751 -756 0
766 -749 756 0
766 -752 -756 0
-766 749 756 0
-766 752 -756 0
767 -750 756 0
767 -753 -756 0
-767 750 756 0
-767 753 -756 0
768 -751 756 0
768 -754 -756 0
-768 751 756 0
-768 754 -756 0
769 759 -765 0
-769 765 0
-769 -759 0
-770 764 0
770 758 759 -764 765 0
-770 759 -765 0
770 758 -759 -764 -765 0
-770 -759 765 0
-770 -758 0
771 -770 0
-771 769 770 0
771 -769 0
-772 763 0
772 757 759 -763 765 0
-772 759 -765 0
772 757 -759 -763 -765 0
-772 -759 765 0
-772 -757 0
773 758 764 -772 0
-773 772 0
-773 758 -764 0
-773 -758 764 0
773 -758 -764 -772 0
774 -773 0
-774 771 773 0
774 -771 0
-775 774 0
775 -774 0
-776 0
-777 0
778 -777 0
-778 776 777 0
778 -776 0
-779 0
780 -779 0
-780 779 0
781 -780 0
-781 778 780 0
781 -778 0
-782 775 0
782 -775 -781 0
-782 781 0
783 -782 0
-783 775 782 0
783 -775 0
784 783 0
-784 -783 0
785 759 -768 0
-785 768 0
-785 -759 0
-786 767 0
786 758 759 -767 768 0
-786 759 -768 0
786 758 -759 -767 -768 0
-786 -759 768 0
-786 -758 0
787 -786 0
-787 785 786 0
787 -785 0
-788 766 0
788 757 759 -766 768 0
-788 759 -768 0
788 757 -759 -766 -768 0
-788 -759 768 0
-788 -757 0
789 758 767 -788 0
-789 788 0
-789 758 -767 0
-789 -758 767 0
789 -758 -767 -788 0
790 -789 0
-790 787 789 0
790 -787 0
-791 784 0
791 -784 -790 0
-791 790 0
-792 783 0
792 -783 791 0
-792 -791 0
-793 791 0
793 -791 0
-794 792 0
794 -792 793 0
-794 -793 0
795 765 -768 0
-795 768 0
-795 -765 0
-796 767 0
796 764 765 -767 768 0
-796 765 -768 0
796 764 -765 -767 -768 0
-796 -765 768 0
-796 -764 0
797 -796 0
-797 795 796 0
797 -795 0
-798 766 0
798 763 765 -766 768 0
-798 765 -768 0
798 763 -765 -766 -768 0
-798 -765 768 0
-798 -763 0
799 764 767 -798 0
-799 798 0
-799 764 -767 0
-799 -764 767 0
799 -764 -767 -798 0
800 -799 0
-800 797 799 0
800 -797 0
-801 794 0
801 -794 -800 0
-801 800 0
-802 792 0
802 -792 801 0
-802 -801 0
803 -801 0
-803 793 801 0
803 -793 0
804 802 0
-804 -802 0
-805 803 0
805 -803 -804 0
-805 804 0
-806 0
-807 0
808 -807 0
-808 806 807 0
808 -806 0
-809 0
810 -809 0
-810 809 0
811 -810 0
-811 808 810 0
811 -808 0
-812 805 0
812 -805 -811 0
-812 811 0
-813 802 0
813 -802 812 0
-813 -812 0
814 -812 0
-814 803 812 0
814 -803 0
-815 813 0
815 -813 814 0
-815 -814 0
816 -757 815 0
816 -763 -815 0
-816 757 815 0
-816 763 -815 0
817 -758 815 0
817 -764 -815 0
-817 758 815 0
-817 764 -815 0
818 -759 815 0
818 -765 -815 0
-818 759 815 0
-818 765 -815 0
819 -763 815 0
819 -757 -815 0
-819 763 815 0
-819 757 -815 0
820 -764 815 0
820 -758 -815 0
-820 764 815 0
-820 758 -815 0
821 -765 815 0
821 -759 -815 0
-821 765 815 0
-821 759 -815 0
822 813 0
-822 -813 0
-823 814 0
823 -814 -822 0
-823 822 0
824 823 0
-824 -823 0
825 -816 824 0
825 -766 -824 0
-825 816 824 0
-825 766 -824 0
826 -817 824 0
826 -767 -824 0
-826 817 824 0
-826 767 -824 0
827 -818 824 0
827 -768 -824 0
-827 818 824 0
-827 768 -824 0
828 -766 824 0
828 -816 -824 0
-828 766 824 0
-828 816 -824 0
829 -767 824 0
829 -817 -824 0
-829 767 824 0
-829 817 -824 0
830 -768 824 0
830 -818 -824 0
-830 768 824 0
-830 818 -824 0
831 -819 0
-831 819 0
832 -820 0
-832 820 0
833 -821 0
-833 821 0
834 827 -833 0
-834 833 0
-834 -827 0
-835 832 0
835 826 827 -832 833 0
-835 827 -833 0
835 826 -827 -832 -833 0
-835 -827 833 0
-835 -826 0
836 -835 0
-836 834 835 0
836 -834 0
-837 831 0
837 825 827 -831 833 0
-837 827 -833 0
837 825 -827 -831 -833 0
-837 -827 833 0
-837 -825 0
838 826 832 -837 0
-838 837 0
-838 826 -832 0
-838 -826 832 0
838 -826 -832 -837 0
839 -838 0
-839 836 838 0
839 -836 0
-840 839 0
840 -839 0
-841 0
-842 0
843 -842 0
-843 841 842 0
843 -841 0
-844 0
845 -844 0
-845 844 0
846 -845 0
-846 843 845 0
846 -843 0
-847 840 0
847 -840 -846 0
-847 846 0
848 -847 0
-848 840 847 0
848 -840 0
849 848 0
-849 -848 0
850 -825 849 0
850 -831 -849 0
-850 825 849 0
-850 831 -849 0
851 -826 849 0
851 -832 -849 0
-851 826 849 0
-851 832 -849 0
852 -827 849 0
852 -833 -849 0
-852 827 849 0
-852 833 -849 0
853 -831 849 0
853 -825 -849 0
-853 831 849 0
-853 825 -849 0
854 -832 849 0
854 -826 -849 0
-854 832 849 0
-854 826 -849 0
855 -833 849 0
855 -827 -849 0
-855 833 849 0
-855 827 -849 0
856 237 -850 0
856 -237 850 0
-856 237 850 0
-856 -237 -850 0
857 238 -851 0
857 -238 851 0
-857 238 851 0
-857 -238 -851 0
858 239 -852 0
858 -239 852 0
-858 239 852 0
-858 -239 -852 0
859 376 -853 0
859 -376 853 0
-859 376 853 0
-859 -376 -853 0
860 377 -854 0
860 -377 854 0
-860 377 854 0
-860 -377 -854 0
861 378 -855 0
861 -378 855 0
-861 378 855 0
-861 -378 -855 0
862 453 -828 0
862 -453 828 0
-862 453 828 0
-862 -453 -828 0
863 454 -829 0
863 -454 829 0
-863 454 829 0
-863 -454 -829 0
864 455 -830 0
864 -455 830 0
-864 455 830 0
-864 -455 -830 0
865 487 -760 0
865 -487 760 0
-865 487 760 0
-865 -487 -760 0
866 488 -761 0
866 -488 761 0
-866 488 761 0
-866 -488 -761 0
867 489 -762 0
867 -489 762 0
-867 489 762 0
-867 -489 -762 0
868 490 -627 0
868 -490 627 0
-868 490 627 0
-868 -490 -627 0
869 491 -628 0
869 -491 628 0
-869 491 628 0
-869 -491 -628 0
870 492 -629 0
870 -492 629 0
-870 492 629 0
-870 -492 -629 0
871 -858 0
-871 856 857 858 0
871 -857 0
871 -856 0
872 -861 0
-872 859 860 861 0
872 -860 0
872 -859 0
873 -864 0
-873 862 863 864 0
873 -863 0
873 -862 0
874 -867 0
-874 865 866 867 0
874 -866 0
874 -865 0
875 -870 0
-875 868 869 870 0
875 -869 0
875 -868 0
876 -875 0
-876 871 872 873 874 875 0
876 -874 0
876 -873 0
876 -872 0
876 -871 0
876 0
